(declare-rel fail ())
(declare-rel inv2 (Int Int Int Int Int))
(declare-var A Int)
(declare-var B Int)
(declare-var C Int)
(declare-var D Int)
(declare-var E Int)
(declare-var F Int)
(declare-var G Int)
(rule (=> (and (< E 0) (> C E) (or (= G 0) (= G 1)) (> A 0) (>= 54932 A) (= B A))
    (inv2 E C G B A)))
(rule (let ((a!1 (= F (ite (= (mod E 2) G) (+ C 2) C))))
  (=> (and (inv2 E C G B A) (= D (+ E 1)) a!1) (inv2 D F G B A))))
(rule (=> (and (inv2 E C G B A) (> E B) (not (> C B))) fail))
(query fail)

